<number of tasks>
50

<cycle time>
1000

<order strength>
0.601


<task times>
1 69
2 30
3 156
4 77
5 100
6 152
7 198
8 85
9 130
10 110
11 125
12 281
13 121
14 163
15 42
16 28
17 195
18 116
19 148
20 128
21 95
22 272
23 157
24 88
25 125
26 162
27 276
28 98
29 203
30 179
31 65
32 226
33 131
34 103
35 80
36 23
37 150
38 328
39 182
40 130
41 82
42 39
43 131
44 164
45 158
46 149
47 88
48 140
49 160
50 110

<precedence relations>
1,6
2,6
3,6
4,6
5,6
5,7
5,8
5,9
5,10
5,11
6,12
6,13
6,14
6,15
6,16
6,17
6,18
7,36
8,34
9,16
9,24
9,25
9,26
10,16
10,17
10,18
10,19
10,20
11,17
11,18
11,19
11,20
11,21
12,34
13,19
13,20
13,21
14,20
15,19
15,20
16,21
16,35
17,33
17,34
17,41
18,26
19,24
19,25
19,26
20,22
20,23
20,25
20,26
21,22
21,23
21,33
21,41
22,36
23,34
24,34
25,27
25,28
27,30
27,31
28,29
28,32
29,34
30,32
30,35
31,33
32,36
33,36
34,37
34,38
34,39
34,40
34,42
35,41
35,42
35,48
36,43
36,44
36,45
36,46
36,47
41,50
42,47
43,48
43,49
44,48
45,49
46,48
46,50
47,49

<end>
